Fe4
1.0
   3.6555511703502481    0.0000000000000000    0.0000000000000002
   0.0000000000000006    3.6555511703502481    0.0000000000000002
   0.0000000000000000    0.0000000000000000    3.6555511703502481
Fe
4
direct
   0.0000000000000000    0.0000000000000000    0.0000000000000000 Fe
   0.0000000000000000    0.5000000000000000    0.5000000000000000 Fe
   0.5000000000000000    0.0000000000000000    0.5000000000000000 Fe
   0.5000000000000000    0.5000000000000000    0.0000000000000000 Fe
